p cnf 56 86
c ind 1 2 3 4 5 6 7 9 10 11 12 13 14 15 16 17 18 19 20 22 23 24 25 26 27 28 29 30 31 33 34 35 36 37 38 39 40 41 42 43 44 45 46 47 48 50 51 52 53 54 55 56 0
1 2 -3 0
-4 -3 0
-5 6 0
-7 -8 0
-9 -10 0
-11 12 0
-13 -14 0
-15 16 17 0
18 -19 0
15 20 -21 0
-22 -23 0
-16 15 0
-12 11 24 0
5 25 -6 0
-14 26 0
-27 -28 0
29 -28 6 0
-7 30 31 0
-32 -33 0
10 -34 0
35 36 -34 0
-1 -2 0
19 -26 0
26 37 -19 0
-26 14 13 0
-38 -12 0
-39 14 0
-5 -25 0
32 -40 33 0
-41 -42 0
-36 -35 0
-35 43 44 0
19 45 -18 0
-46 -47 0
-37 -26 0
48 -18 0
-16 40 49 0
47 46 -42 0
-1 3 0
-43 35 0
-5 23 22 0
7 -30 0
-6 28 0
-31 -30 0
30 -10 0
5 -23 0
18 50 -48 0
-40 16 0
-7 33 0
-51 -34 0
-52 -53 0
54 -39 0
-24 -11 0
53 52 -47 0
-1 48 55 0
-56 -39 0
-20 -15 0
-33 40 0
-45 -19 0
42 41 -23 0
21 -15 0
-43 28 27 0
-14 39 56 0
34 51 -10 0
-53 12 38 0
1 -48 0
7 8 -33 0
-50 -18 0
-49 -40 0
-28 43 0
23 -42 0
-44 -43 0
-29 -6 0
-55 -48 0
42 -47 0
4 -11 3 0
-3 11 0
47 -53 0
10 9 -30 0
-17 -16 0
-12 53 0
34 -35 0
49 0
-32 0
8 0
-21 0
